(declare-datatype Nat ((zero) (succ (p Nat))))
(declare-datatype list ((nil) (cons (head Nat) (tail list))))
(declare-datatype
  pair ((pair2 (proj1-pair Bool) (proj2-pair list))))
(define-fun-rec
  leq
  ((x Nat) (y Nat)) Bool
  (match x
    ((zero true)
     ((succ z)
      (match y
        ((zero false)
         ((succ x2) (leq z x2))))))))
(define-fun-rec
  ordered
  ((x list)) Bool
  (match x
    ((nil true)
     ((cons y z)
      (match z
        ((nil true)
         ((cons y2 xs) (and (leq y y2) (ordered (cons y2 xs))))))))))
(define-fun-rec
  bubble
  ((x list)) pair
  (match x
    ((nil (pair2 false nil))
     ((cons y z)
      (match z
        ((nil (pair2 false (cons y nil)))
         ((cons y2 xs)
          (ite
            (leq y y2)
            (match (bubble (cons y2 xs))
              (((pair2 b12 ys12) (pair2 b12 (cons y ys12)))))
            (match (bubble (cons y xs))
              (((pair2 b1 ys1) (pair2 true (cons y2 ys1)))))))))))))
(define-fun-rec
  bubsort
  ((x list)) list
  (match (bubble x) (((pair2 c ys1) (ite c (bubsort ys1) x)))))
(assert (not (forall ((xs list)) (ordered (bubsort xs)))))
(check-sat)
